0 4225
2401 4121
4802 4030
7203 3966
9604 3905
12005 3861
14406 3813
16807 3768
19208 3751
21609 3738
24010 3716
26411 3697
28812 3664
31213 3645
33614 3624
36015 3604
38416 3598
40817 3590
43218 3566
45619 3562
48020 3551
50421 3536
52822 3522
55223 3518
57624 3517
60025 3515
